# 3.4.21.21_group0_PF00089_30-85~3.4.21.68_group0_PF00089_30-85.sdpA
# All alignment positions within 5\AA of a ligand/cat site passing the sdpA filter.  Column indices start with 0.
87
94
141
143
205
226
